50
8565

483 267
559 492
556 903
656 994
404 518
318 692
530 191
254 628
784 440
431 336
525 288
357 399
883 633
794 544
799 584
78 32
266 484
410 503
737 18
591 52
93 394
110 554
704 692
673 270
570 664
860 555
6 72
336 778
379 395
173 242
961 648
352 425
924 595
429 75
373 78
110 98
712 230
165 633
985 660
246 692
399 995
218 623
304 677
914 482
486 884
163 940
39 977
452 297
398 324
606 828
